nNurses = 69;
nHours = 32;
minHours = 4;
maxHours = 20;
maxConsec = 18;
maxPresence = 9;
demand = [22, 20, 16, 11, 10, 9, 7, 8, 10, 13, 16, 14, 16, 21, 19, 22, 25, 28, 31, 32, 29, 29, 27, 23, 25, 30, 35, 35, 35, 34, 36, 35];
